
Gurobi 13.0.1 (win64) logging started Thu Apr 23 13:25:01 2026


Gurobi 13.0.1 (win64) logging started Thu Apr 23 13:25:22 2026


Gurobi 13.0.1 (win64) logging started Thu Apr 23 13:25:40 2026


Gurobi 13.0.1 (win64) logging started Thu Apr 23 13:25:53 2026

